DIMENSION: 7
EDGE_WEIGHT_TYPE: EXPLICIT
EDGE_WEIGHT_FORMAT: FULL_MATRIX
EDGE_WEIGHT_SECTION:
32767 32767 32767 32767 50 32767 37 
32767 32767 32767 32767 63 32767 32767 
32767 32767 32767 32767 32767 32767 41 
32767 32767 32767 32767 32767 32767 24 
50 63 32767 32767 32767 32767 65 
32767 32767 32767 32767 32767 32767 32767 
37 32767 41 24 65 32767 32767 
EOF